1468
1   1   170  54   0 3 11 19 27 35 37 29 21 13 5 0
1   2   176  42   0 7 65 73 38 30 22 14 6 0
1   3   100  27   0 4 20 28 36 12 0
1   4   200  49   0 15 23 31 39 59 67 75 40 32 24 16 8 0
1   5   170  54   0 2 10 18 26 34 33 25 17 9 1 0
2   1   182  54   0 42 52 60 68 76 79 71 63 55 47 0
2   2   0    0    0 0
2   3   170  54   0 48 56 64 72 80 77 69 61 53 45 0
2   4   156  59   0 41 49 57 74 66 58 50 51 43 0
2   5   144  39   0 44 70 78 62 54 46 0